NAME: instance_648
TYPE: TSP
DIMENSION: 20
EDGE_WEIGHT_TYPE: EUC_2D
NODE_COORD_SECTION
0 74.71 18.38
1 58.05 75.52
2 7.90 42.45
3 36.41 91.08
4 7.02 95.44
5 71.73 79.70
6 93.73 64.09
7 11.25 81.36
8 44.17 70.43
9 86.63 44.06
10 39.17 82.20
11 87.40 57.91
12 24.61 2.05
13 29.70 62.07
14 69.03 10.58
15 48.69 35.09
16 27.59 6.68
17 43.67 40.72
18 34.86 8.26
19 37.76 82.96
EOF
